Copyright (C) 2013-2015, Filipe Brandao
Build (method = -2)
  #dp: 994
  Step-3' Graph: 45 vertices and 443 arcs (0.00s)
  Step-4' Graph: 44 vertices and 441 arcs (0.00s)
  #V4/#V3 = 0.98
  #A4/#A3 = 1.00
Ready! (0.00s)
Optimize a model with 81 rows, 442 columns and 1246 nonzeros
Found heuristic solution: objective 126
Presolve removed 17 rows and 24 columns
Presolve time: 0.00s
Presolved: 64 rows, 418 columns, 1183 nonzeros
Variable types: 0 continuous, 418 integer (31 binary)
Optimize a model with 64 rows, 418 columns and 1183 nonzeros
Presolved: 64 rows, 418 columns, 1183 nonzeros

Root barrier log...

Ordering time: 0.00s

Barrier statistics:
 AA' NZ     : 6.120e+02
 Factor NZ  : 1.280e+03
 Factor Ops : 3.411e+04 (less than 1 second per iteration)
 Threads    : 1

                  Objective                Residual
Iter       Primal          Dual         Primal    Dual     Compl     Time
   0   1.39977480e+03 -3.19176232e+03  9.30e+03 1.32e-01  2.87e+01     0s
   1   4.18264308e+02 -1.20292182e+03  1.20e+03 3.89e-16  4.58e+00     0s
   2   1.78149243e+02 -2.74113045e+02  5.50e+01 4.11e-15  6.11e-01     0s
   3   1.25242509e+02  3.79084843e+01  4.98e+00 2.83e-15  1.06e-01     0s
   4   1.01313413e+02  6.09532634e+01  5.71e-01 2.33e-15  4.75e-02     0s
   5   9.75704923e+01  8.09326199e+01  1.97e-01 2.18e-15  1.95e-02     0s
   6   9.55256428e+01  8.97128503e+01  7.54e-02 1.76e-15  6.81e-03     0s
   7   9.46783285e+01  9.33492318e+01  1.80e-02 2.22e-15  1.56e-03     0s
   8   9.44851664e+01  9.43429837e+01  2.34e-03 2.00e-15  1.67e-04     0s
   9   9.44501717e+01  9.44486260e+01  6.21e-06 2.06e-15  1.81e-06     0s
  10   9.44500002e+01  9.44499986e+01  1.28e-13 1.89e-15  1.81e-09     0s
  11   9.44500000e+01  9.44500000e+01  6.39e-14 1.89e-15  1.81e-12     0s

Barrier solved model in 11 iterations and 0.00 seconds
Optimal objective 9.44500000e+01


Root relaxation: objective 9.445000e+01, 142 iterations, 0.00 seconds

    Nodes    |    Current Node    |     Objective Bounds      |     Work
 Expl Unexpl |  Obj  Depth IntInf | Incumbent    BestBd   Gap | It/Node Time

     0     0   94.45000    0   10  126.00000   94.45000  25.0%     -    0s
H    0     0                      96.0000000   94.45000  1.61%     -    0s
H    0     0                      95.0000000   94.45000  0.58%     -    0s

Explored 0 nodes (170 simplex iterations) in 0.01 seconds
Thread count was 1 (of 4 available processors)

Optimal solution found (tolerance 0.00e+00)
Best objective 9.500000000000e+01, best bound 9.500000000000e+01, gap 0.0%
Preprocessing time: 0.00 seconds
Gurobi run time: 0.01 seconds
Total run time: 0.01 seconds
Objective: 95
Solution:
4 x [i=1, i=32]
2 x [i=2, i=30]
7 x [i=3, i=32]
1 x [i=4, i=27]
4 x [i=4, i=29]
1 x [i=5, i=26]
6 x [i=5, i=28]
8 x [i=6, i=25]
5 x [i=7, i=24]
1 x [i=7, i=27]
4 x [i=7, i=33]
2 x [i=8, i=23]
2 x [i=8, i=37, i=37]
6 x [i=9, i=22]
1 x [i=10, i=21]
4 x [i=10, i=22]
2 x [i=10, i=36, i=36]
5 x [i=11, i=20]
1 x [i=11, i=21]
5 x [i=12, i=19]
3 x [i=13, i=18]
2 x [i=13, i=21]
6 x [i=14, i=18]
1 x [i=14, i=34, i=34]
3 x [i=15, i=17]
1 x [i=16, i=19]
3 x [i=16, i=16]
1 x [i=17, i=31, i=35]
2 x [i=17, i=31, i=36]
1 x [i=33, i=33, i=34]
1 x [i=34, i=34, i=37]
